  a test to STAP90                                                                

 C O N T R O L   I N F O R M A T I O N

      NUMBER OF NODAL POINTS . . . . . . . . . . (NUMNP)  =    13
      NUMBER OF ELEMENT GROUPS . . . . . . . . . (NUMEG)  =     1
      NUMBER OF LOAD CASES . . . . . . . . . . . (NLCASE) =     1
      SOLUTION MODE  . . . . . . . . . . . . . . (MODEX)  =     1
         EQ.0, DATA CHECK
         EQ.1, EXECUTION


 N O D A L   P O I N T   D A T A

  NODE          BOUNDARY                         NODAL POINT
 NUMBER     CONDITION  CODES                     COORDINATES
               X    Y    Z   TX   TY   TZ               X            Y            Z
    1          1    1    1    1    1    1              0.000        0.000        0.000
    2          1    1    0    0    0    1             20.000        0.000        0.000
    3          1    1    0    0    0    1             20.000       20.000        0.000
    4          1    1    1    1    1    1              0.000       20.000        0.000
    5          1    1    0    0    0    1             10.000        0.000        0.000
    6          1    1    0    0    0    1             20.000       10.000        0.000
    7          1    1    0    0    0    1             10.000       20.000        0.000
    8          1    1    1    1    1    1              0.000       10.000        0.000
    9          1    1    0    0    0    1            120.000        0.000        0.000
   10          1    1    0    0    0    1            220.000        0.000        0.000
   11          1    1    0    0    0    1            120.000       10.000        0.000
   12          1    1    0    0    0    1            220.000       20.000        0.000
   13          1    1    0    0    0    1            120.000       20.000        0.000


 EQUATION NUMBERS

   NODE         DEGREES OF FREEDOM
  NUMBER
     N             X    Y    Z   TX   TY   TZ
     1             0    0    0    0    0    0
     2             0    0    1    2    3    0
     3             0    0    4    5    6    0
     4             0    0    0    0    0    0
     5             0    0    7    8    9    0
     6             0    0   10   11   12    0
     7             0    0   13   14   15    0
     8             0    0    0    0    0    0
     9             0    0   16   17   18    0
    10             0    0   19   20   21    0
    11             0    0   22   23   24    0
    12             0    0   25   26   27    0
    13             0    0   28   29   30    0


 L O A D   C A S E   D A T A

     LOAD CASE NUMBER . . . . . . . =     1
     NUMBER OF CONCENTRATED LOADS . =     3

    NODE       DIRECTION      LOAD
   NUMBER                   MAGNITUDE
     12            3       -0.20000E+04
     11            3       -0.40000E+04
     10            3       -0.20000E+04


 E L E M E N T   G R O U P   D A T A


 E L E M E N T   D E F I N I T I O N

 ELEMENT TYPE  . . . . . . . . . . . . .( NPAR(1) ) . . =    6
     EQ.1, 4Q  ELEMENTS
     EQ.2, ELEMENTS CURRENTLY
     EQ.3, NOT AVAILABLE

 NUMBER OF ELEMENTS. . . . . . . . . . .( NPAR(2) ) . . =    2

 M A T E R I A L   D E F I N I T I O N

 NUMBER OF DIFFERENT SETS OF MATERIAL
 AND CROSS-SECTIONAL  CONSTANTS  . . . .( NPAR(3) ) . . =    1

  SET       YOUNG'S     CROSS-SECTIONAL
 NUMBER     MODULUS          miu 
               E              A
    1     0.10000E+11    0.000000E+00    0.200000E+01


 E L E M E N T   I N F O R M A T I O N

 ELEMENT     NODE     NODE     NODE     NODE       MATERIAL
 NUMBER-N      I        J        J        J       SET NUMBER
    1          1        2        3        4        5        6        7        8           1
    2          2       10       12        3        9       11       13        6           1


 TOTAL SYSTEM DATA

     NUMBER OF EQUATIONS . . . . . . . . . . . . . .(NEQ) =    30
     NUMBER OF MATRIX ELEMENTS . . . . . . . . . . .(NWK) =   465
     MAXIMUM HALF BANDWIDTH  . . . . . . . . . . . .(MK ) =    30
     MEAN HALF BANDWIDTH . . . . . . . . . . . . . .(MM ) =    15


 LOAD CASE   1


 D I S P L A C E M E N T S

  NODE           X-DISPLACEMENT    Y-DISPLACEMENT    Z-DISPLACEMENT
   1              0.000000E+00      0.000000E+00      0.000000E+00      0.000000E+00      0.000000E+00      0.000000E+00
   2              0.000000E+00      0.000000E+00     -0.192114E-02     -0.192147E-03     -0.721435E-06      0.000000E+00
   3              0.000000E+00      0.000000E+00     -0.192114E-02     -0.192147E-03      0.721435E-06      0.000000E+00
   4              0.000000E+00      0.000000E+00      0.000000E+00      0.000000E+00      0.000000E+00      0.000000E+00
   5              0.000000E+00      0.000000E+00     -0.480572E-03     -0.963044E-04     -0.388408E-06      0.000000E+00
   6              0.000000E+00      0.000000E+00     -0.192504E-02     -0.191926E-03      0.239505E-15      0.000000E+00
   7              0.000000E+00      0.000000E+00     -0.480572E-03     -0.963044E-04      0.388408E-06      0.000000E+00
   8              0.000000E+00      0.000000E+00      0.000000E+00      0.000000E+00      0.000000E+00      0.000000E+00
   9              0.000000E+00      0.000000E+00     -0.211696E-01     -0.192607E-03      0.172291E-06      0.000000E+00
  10              0.000000E+00      0.000000E+00     -0.404275E-01     -0.192509E-03     -0.107204E-05      0.000000E+00
  11              0.000000E+00      0.000000E+00     -0.211703E-01     -0.192532E-03      0.325261E-15      0.000000E+00
  12              0.000000E+00      0.000000E+00     -0.404275E-01     -0.192509E-03      0.107204E-05      0.000000E+00
  13              0.000000E+00      0.000000E+00     -0.211696E-01     -0.192607E-03     -0.172291E-06      0.000000E+00


 S T R E S S  C A L C U L A T I O N S  F O R  E L E M E N T  G R O U P   1

  ELEMENT             x         y                  STRESS xx         yy         xy
  NUMBER
     1            0.96E+05    -0.92E+02     0.14E+03     0.00E+00     0.00E+00     0.00E+00    -0.18E+03     0.17E+02
     1            0.96E+05    -0.39E+03     0.54E+02     0.00E+00     0.00E+00     0.00E+00     0.63E+03    -0.62E+01
     1            0.96E+05    -0.65E+03    -0.29E+02     0.00E+00     0.00E+00     0.00E+00     0.47E+02    -0.16E+03
     1            0.96E+05    -0.92E+02    -0.84E-07     0.00E+00     0.00E+00     0.00E+00    -0.84E+03    -0.41E-08
     1            0.96E+05    -0.39E+03    -0.13E-06     0.00E+00     0.00E+00     0.00E+00    -0.29E+03    -0.17E-07
     1            0.96E+05    -0.65E+03    -0.98E-07     0.00E+00     0.00E+00     0.00E+00    -0.11E+04    -0.27E-07
     1            0.96E+05    -0.92E+02    -0.14E+03     0.00E+00     0.00E+00     0.00E+00    -0.18E+03    -0.17E+02
     1            0.96E+05    -0.39E+03    -0.54E+02     0.00E+00     0.00E+00     0.00E+00     0.63E+03     0.62E+01
     1            0.96E+05    -0.65E+03     0.29E+02     0.00E+00     0.00E+00     0.00E+00     0.47E+02     0.16E+03
     2            0.83E+02    -0.58E+03    -0.15E+03     0.00E+00     0.00E+00     0.00E+00    -0.99E+03    -0.67E+02
     2            0.29E+02     0.30E+03     0.43E+02     0.00E+00     0.00E+00     0.00E+00     0.28E+03     0.16E+03
     2           -0.25E+02     0.18E+04    -0.88E+02     0.00E+00     0.00E+00     0.00E+00    -0.13E+03    -0.12E+03
     2            0.15E+03    -0.33E+03    -0.12E-07     0.00E+00     0.00E+00     0.00E+00    -0.10E+04    -0.31E-08
     2            0.61E+02     0.17E+03    -0.62E-08     0.00E+00     0.00E+00     0.00E+00     0.28E+03     0.37E-07
     2           -0.26E+02    -0.60E+03    -0.52E-08     0.00E+00     0.00E+00     0.00E+00    -0.11E+03     0.99E-10
     2            0.83E+02    -0.58E+03     0.15E+03     0.00E+00     0.00E+00     0.00E+00    -0.99E+03     0.67E+02
     2            0.29E+02     0.30E+03    -0.43E+02     0.00E+00     0.00E+00     0.00E+00     0.28E+03    -0.16E+03
     2           -0.25E+02     0.18E+04     0.88E+02     0.00E+00     0.00E+00     0.00E+00    -0.13E+03     0.12E+03


 S O L U T I O N   T I M E   L O G   I N   S E C

     TIME FOR INPUT PHASE  . . . . . . . . . . . . . . =        0.00
     TIME FOR CALCULATION OF STIFFNESS MATRIX  . . . . =        0.00
     TIME FOR FACTORIZATION OF STIFFNESS MATRIX  . . . =        0.00
     TIME FOR LOAD CASE SOLUTIONS  . . . . . . . . . . =        0.00

      T O T A L   S O L U T I O N   T I M E  . . . . . =        0.00
