
 Patch test to 8Q element                                                        

 C O N T R O L   I N F O R M A T I O N

      NUMBER OF NODAL POINTS . . . . . . . . . . (NUMNP)  =    20
      NUMBER OF ELEMENT GROUPS . . . . . . . . . (NUMEG)  =     1
      NUMBER OF LOAD CASES . . . . . . . . . . . (NLCASE) =     1
      SOLUTION MODE  . . . . . . . . . . . . . . (MODEX)  =     1
         EQ.0, DATA CHECK
         EQ.1, EXECUTION


 N O D A L   P O I N T   D A T A

  NODE          BOUNDARY                         NODAL POINT
 NUMBER     CONDITION  CODES                     COORDINATES
               X    Y    Z   TX   TY   TZ               X            Y            Z
    1          1    1    1    1    1    1              0.000        0.000        0.000
    2          0    0    1    1    1    1              1.000        0.000        0.000
    3          0    0    1    1    1    1              1.000        1.000        0.000
    4          1    0    1    1    1    1              0.000        1.000        0.000
    5          0    0    1    1    1    1              0.300        0.300        0.000
    6          0    0    1    1    1    1              0.600        0.200        0.000
    7          0    0    1    1    1    1              0.800        0.750        0.000
    8          0    0    1    1    1    1              0.250        0.900        0.000
    9          0    0    1    1    1    1              0.500        0.000        0.000
   10          0    0    1    1    1    1              1.000        0.500        0.000
   11          0    0    1    1    1    1              0.500        1.000        0.000
   12          1    0    1    1    1    1              0.000        0.500        0.000
   13          0    0    1    1    1    1              0.200        0.150        0.000
   14          0    0    1    1    1    1              0.800        0.150        0.000
   15          0    0    1    1    1    1              0.900        0.850        0.000
   16          0    0    1    1    1    1              0.100        0.950        0.000
   17          0    0    1    1    1    1              0.500        0.200        0.000
   18          0    0    1    1    1    1              0.700        0.600        0.000
   19          0    0    1    1    1    1              0.600        0.800        0.000
   20          0    0    1    1    1    1              0.350        0.600        0.000


 EQUATION NUMBERS

   NODE         DEGREES OF FREEDOM
  NUMBER
     N             X    Y    Z   TX   TY   TZ
     1             0    0    0    0    0    0
     2             1    2    0    0    0    0
     3             3    4    0    0    0    0
     4             0    5    0    0    0    0
     5             6    7    0    0    0    0
     6             8    9    0    0    0    0
     7            10   11    0    0    0    0
     8            12   13    0    0    0    0
     9            14   15    0    0    0    0
    10            16   17    0    0    0    0
    11            18   19    0    0    0    0
    12             0   20    0    0    0    0
    13            21   22    0    0    0    0
    14            23   24    0    0    0    0
    15            25   26    0    0    0    0
    16            27   28    0    0    0    0
    17            29   30    0    0    0    0
    18            31   32    0    0    0    0
    19            33   34    0    0    0    0
    20            35   36    0    0    0    0


 L O A D   C A S E   D A T A

     LOAD CASE NUMBER . . . . . . . =     1
     NUMBER OF CONCENTRATED LOADS . =    12

    NODE       DIRECTION      LOAD
   NUMBER                   MAGNITUDE
      2            1        0.54945E+02
      3            1        0.54945E+02
      9            1        0.00000E+00
     10            1        0.21978E+03
     11            1        0.00000E+00
      2            2       -0.16484E+02
      3            2        0.16484E+02
      9            2       -0.65934E+02
     10            2        0.00000E+00
     11            2        0.65934E+02
      4            2        0.16484E+02
     12            2        0.00000E+00


 E L E M E N T   G R O U P   D A T A


 E L E M E N T   D E F I N I T I O N

 ELEMENT TYPE  . . . . . . . . . . . . .( NPAR(1) ) . . =    7
     EQ.1, 4Q  ELEMENTS
     EQ.2, ELEMENTS CURRENTLY
     EQ.3, NOT AVAILABLE

 NUMBER OF ELEMENTS. . . . . . . . . . .( NPAR(2) ) . . =    5

 M A T E R I A L   D E F I N I T I O N

 NUMBER OF DIFFERENT SETS OF MATERIAL
 AND CROSS-SECTIONAL  CONSTANTS  . . . .( NPAR(3) ) . . =    1

  SET       YOUNG'S     CROSS-SECTIONAL
 NUMBER     MODULUS          miu 
               E              A
    1     0.30000E+08    0.300000E+00    0.100000E-01


 E L E M E N T   I N F O R M A T I O N

 ELEMENT     NODE     NODE     NODE     NODE       MATERIAL
 NUMBER-N      I        J        J        J       SET NUMBER
    1          1        2        6        5        9       14       17       13           1
    2          2        3        7        6       10       15       18       14           1
    3          3        4        8        7       11       16       19       15           1
    4          4        1        5        8       12       13       20       16           1
    5          5        6        7        8       17       18       19       20           1


 TOTAL SYSTEM DATA

     NUMBER OF EQUATIONS . . . . . . . . . . . . . .(NEQ) =    36
     NUMBER OF MATRIX ELEMENTS . . . . . . . . . . .(NWK) =   636
     MAXIMUM HALF BANDWIDTH  . . . . . . . . . . . .(MK ) =    32
     MEAN HALF BANDWIDTH . . . . . . . . . . . . . .(MM ) =    17


 LOAD CASE   1


 D I S P L A C E M E N T S

  NODE           X-DISPLACEMENT    Y-DISPLACEMENT    Z-DISPLACEMENT
   1              0.000000E+00      0.000000E+00      0.000000E+00      0.000000E+00      0.000000E+00      0.000000E+00
   2              0.100000E-02     -0.168526E-10      0.000000E+00      0.000000E+00      0.000000E+00      0.000000E+00
   3              0.100000E-02      0.860729E-10      0.000000E+00      0.000000E+00      0.000000E+00      0.000000E+00
   4              0.000000E+00      0.714486E-10      0.000000E+00      0.000000E+00      0.000000E+00      0.000000E+00
   5              0.300000E-03      0.256203E-10      0.000000E+00      0.000000E+00      0.000000E+00      0.000000E+00
   6              0.600000E-03      0.271081E-10      0.000000E+00      0.000000E+00      0.000000E+00      0.000000E+00
   7              0.800000E-03      0.396263E-10      0.000000E+00      0.000000E+00      0.000000E+00      0.000000E+00
   8              0.250000E-03      0.448166E-10      0.000000E+00      0.000000E+00      0.000000E+00      0.000000E+00
   9              0.500000E-03      0.161075E-10      0.000000E+00      0.000000E+00      0.000000E+00      0.000000E+00
  10              0.100000E-02      0.309151E-10      0.000000E+00      0.000000E+00      0.000000E+00      0.000000E+00
  11              0.500000E-03      0.425140E-10      0.000000E+00      0.000000E+00      0.000000E+00      0.000000E+00
  12              0.000000E+00      0.320001E-10      0.000000E+00      0.000000E+00      0.000000E+00      0.000000E+00
  13              0.200000E-03      0.143391E-10      0.000000E+00      0.000000E+00      0.000000E+00      0.000000E+00
  14              0.800000E-03      0.118718E-10      0.000000E+00      0.000000E+00      0.000000E+00      0.000000E+00
  15              0.900000E-03      0.589327E-10      0.000000E+00      0.000000E+00      0.000000E+00      0.000000E+00
  16              0.100000E-03      0.577452E-10      0.000000E+00      0.000000E+00      0.000000E+00      0.000000E+00
  17              0.500000E-03      0.251271E-10      0.000000E+00      0.000000E+00      0.000000E+00      0.000000E+00
  18              0.700000E-03      0.328104E-10      0.000000E+00      0.000000E+00      0.000000E+00      0.000000E+00
  19              0.600000E-03      0.368141E-10      0.000000E+00      0.000000E+00      0.000000E+00      0.000000E+00
  20              0.350000E-03      0.355690E-10      0.000000E+00      0.000000E+00      0.000000E+00      0.000000E+00


 S T R E S S  C A L C U L A T I O N S  F O R  E L E M E N T  G R O U P   1

  ELEMENT             x         y                  STRESS xx         yy         xy
  NUMBER
     1            0.33E+05     0.99E+04     0.44E-03     0.33E+05     0.99E+04     0.44E-03     0.00E+00     0.00E+00
     1            0.33E+05     0.99E+04     0.56E-03     0.33E+05     0.99E+04     0.56E-03     0.00E+00     0.00E+00
     1            0.33E+05     0.99E+04    -0.51E-04     0.33E+05     0.99E+04    -0.51E-04     0.00E+00     0.00E+00
     1            0.33E+05     0.99E+04     0.37E-03     0.33E+05     0.99E+04     0.37E-03     0.00E+00     0.00E+00
     1            0.33E+05     0.99E+04     0.41E-03     0.33E+05     0.99E+04     0.41E-03     0.00E+00     0.00E+00
     1            0.33E+05     0.99E+04    -0.12E-03     0.33E+05     0.99E+04    -0.12E-03     0.00E+00     0.00E+00
     1            0.33E+05     0.99E+04     0.30E-03     0.33E+05     0.99E+04     0.30E-03     0.00E+00     0.00E+00
     1            0.33E+05     0.99E+04     0.12E-03     0.33E+05     0.99E+04     0.12E-03     0.00E+00     0.00E+00
     1            0.33E+05     0.99E+04     0.48E-03     0.33E+05     0.99E+04     0.48E-03     0.00E+00     0.00E+00
     2            0.33E+05     0.99E+04     0.98E-03     0.33E+05     0.99E+04     0.98E-03     0.00E+00     0.00E+00
     2            0.33E+05     0.99E+04     0.23E-03     0.33E+05     0.99E+04     0.23E-03     0.00E+00     0.00E+00
     2            0.33E+05     0.99E+04    -0.93E-03     0.33E+05     0.99E+04    -0.93E-03     0.00E+00     0.00E+00
     2            0.33E+05     0.99E+04     0.35E-03     0.33E+05     0.99E+04     0.35E-03     0.00E+00     0.00E+00
     2            0.33E+05     0.99E+04     0.84E-04     0.33E+05     0.99E+04     0.84E-04     0.00E+00     0.00E+00
     2            0.33E+05     0.99E+04    -0.95E-03     0.33E+05     0.99E+04    -0.95E-03     0.00E+00     0.00E+00
     2            0.33E+05     0.99E+04    -0.15E-03     0.33E+05     0.99E+04    -0.15E-03     0.00E+00     0.00E+00
     2            0.33E+05     0.99E+04    -0.77E-04     0.33E+05     0.99E+04    -0.77E-04     0.00E+00     0.00E+00
     2            0.33E+05     0.99E+04     0.36E-03     0.33E+05     0.99E+04     0.36E-03     0.00E+00     0.00E+00
     3            0.33E+05     0.99E+04     0.17E-03     0.33E+05     0.99E+04     0.17E-03     0.00E+00     0.00E+00
     3            0.33E+05     0.99E+04    -0.41E-03     0.33E+05     0.99E+04    -0.41E-03     0.00E+00     0.00E+00
     3            0.33E+05     0.99E+04    -0.46E-03     0.33E+05     0.99E+04    -0.46E-03     0.00E+00     0.00E+00
     3            0.33E+05     0.99E+04    -0.14E-03     0.33E+05     0.99E+04    -0.14E-03     0.00E+00     0.00E+00
     3            0.33E+05     0.99E+04    -0.43E-03     0.33E+05     0.99E+04    -0.43E-03     0.00E+00     0.00E+00
     3            0.33E+05     0.99E+04    -0.23E-03     0.33E+05     0.99E+04    -0.23E-03     0.00E+00     0.00E+00
     3            0.33E+05     0.99E+04    -0.78E-03     0.33E+05     0.99E+04    -0.78E-03     0.00E+00     0.00E+00
     3            0.33E+05     0.99E+04    -0.38E-03     0.33E+05     0.99E+04    -0.38E-03     0.00E+00     0.00E+00
     3            0.33E+05     0.99E+04    -0.12E-03     0.33E+05     0.99E+04    -0.12E-03     0.00E+00     0.00E+00
     4            0.33E+05     0.99E+04    -0.79E-03     0.33E+05     0.99E+04    -0.79E-03     0.00E+00     0.00E+00
     4            0.33E+05     0.99E+04    -0.44E-04     0.33E+05     0.99E+04    -0.44E-04     0.00E+00     0.00E+00
     4            0.33E+05     0.99E+04     0.28E-03     0.33E+05     0.99E+04     0.28E-03     0.00E+00     0.00E+00
     4            0.33E+05     0.99E+04    -0.69E-03     0.33E+05     0.99E+04    -0.69E-03     0.00E+00     0.00E+00
     4            0.33E+05     0.99E+04    -0.38E-04     0.33E+05     0.99E+04    -0.38E-04     0.00E+00     0.00E+00
     4            0.33E+05     0.99E+04     0.40E-03     0.33E+05     0.99E+04     0.40E-03     0.00E+00     0.00E+00
     4            0.33E+05     0.99E+04    -0.58E-03     0.33E+05     0.99E+04    -0.58E-03     0.00E+00     0.00E+00
     4            0.33E+05     0.99E+04    -0.13E-04     0.33E+05     0.99E+04    -0.13E-04     0.00E+00     0.00E+00
     4            0.33E+05     0.99E+04     0.71E-03     0.33E+05     0.99E+04     0.71E-03     0.00E+00     0.00E+00
     5            0.33E+05     0.99E+04     0.88E-04     0.33E+05     0.99E+04     0.88E-04     0.00E+00     0.00E+00
     5            0.33E+05     0.99E+04     0.99E-04     0.33E+05     0.99E+04     0.99E-04     0.00E+00     0.00E+00
     5            0.33E+05     0.99E+04     0.51E-03     0.33E+05     0.99E+04     0.51E-03     0.00E+00     0.00E+00
     5            0.33E+05     0.99E+04    -0.18E-03     0.33E+05     0.99E+04    -0.18E-03     0.00E+00     0.00E+00
     5            0.33E+05     0.99E+04    -0.10E-03     0.33E+05     0.99E+04    -0.10E-03     0.00E+00     0.00E+00
     5            0.33E+05     0.99E+04     0.32E-03     0.33E+05     0.99E+04     0.32E-03     0.00E+00     0.00E+00
     5            0.33E+05     0.99E+04    -0.34E-03     0.33E+05     0.99E+04    -0.34E-03     0.00E+00     0.00E+00
     5            0.33E+05     0.99E+04    -0.20E-03     0.33E+05     0.99E+04    -0.20E-03     0.00E+00     0.00E+00
     5            0.33E+05     0.99E+04    -0.95E-04     0.33E+05     0.99E+04    -0.95E-04     0.00E+00     0.00E+00


 S O L U T I O N   T I M E   L O G   I N   S E C

     TIME FOR INPUT PHASE  . . . . . . . . . . . . . . =        0.00
     TIME FOR CALCULATION OF STIFFNESS MATRIX  . . . . =        0.00
     TIME FOR FACTORIZATION OF STIFFNESS MATRIX  . . . =        0.00
     TIME FOR LOAD CASE SOLUTIONS  . . . . . . . . . . =        0.00

      T O T A L   S O L U T I O N   T I M E  . . . . . =        0.00
